c description: Random 3-CNF over 17 variables and 72 clauses
c generator: CNFgen (0.9.2)
c copyright: (C) 2012-2022 Massimo Lauria <massimo.lauria@uniroma1.it>
c url: https://massimolauria.net/cnfgen
c command line: cnfgen --output CNF_4.28/17_bit_72_653.cnf randkcnf 3 17 72
c
p cnf 17 72
6 9 -11 0
-2 10 15 0
6 -8 11 0
-1 4 13 0
11 -15 -17 0
-2 -4 14 0
-3 -15 -16 0
3 -8 14 0
-12 -14 -17 0
-2 -8 -16 0
-2 -4 11 0
2 6 7 0
2 13 15 0
4 9 15 0
9 14 -17 0
-11 -15 -17 0
11 -12 -13 0
-8 10 -14 0
5 15 -16 0
-5 10 -14 0
-1 15 -16 0
3 -16 -17 0
-10 15 -16 0
-1 5 13 0
2 10 -13 0
2 11 -14 0
-4 -16 -17 0
-7 11 -15 0
-8 14 15 0
5 -6 16 0
1 -2 5 0
3 -5 -11 0
-3 8 9 0
-5 -6 14 0
2 -3 9 0
4 9 11 0
7 9 16 0
12 -14 16 0
-7 -12 -14 0
6 7 9 0
-1 -7 -13 0
3 -4 -17 0
4 -5 6 0
-7 -8 16 0
5 -8 -12 0
-3 -7 -9 0
4 -10 -11 0
-6 8 -12 0
2 -5 -14 0
6 -7 17 0
-5 -11 16 0
8 11 13 0
-1 -2 -13 0
5 7 -12 0
2 11 12 0
-1 8 -11 0
2 -12 16 0
6 -13 -14 0
6 -14 15 0
1 2 -14 0
-5 -9 17 0
2 7 -16 0
-2 -13 17 0
5 7 -11 0
3 -8 -13 0
-6 -11 -17 0
2 5 17 0
-10 12 15 0
3 4 -11 0
-8 -11 -12 0
-5 -11 -12 0
1 9 17 0
